NAME : custom-n7-greedy-incongruent
COMMENT : ahreloco
TYPE : CVRP
DIMENSION : 7
EDGE_WEIGHT_TYPE : EUC_2D
CAPACITY : 100
NODE_COORD_SECTION
 1 0 0
 2 4 4
 3 4 2
 4 2 4
 5 -4 -2
 6 -2 -4
 7 -4 -4
DEMAND_SECTION
1 0
2 55
3 42
4 3
5 43
6 30
7 27
DEPOT_SECTION
 1
 -1
EOF
